428 429 430 432 433 434 435 436 437 438 454 455 456 457 458 459 460 461 462 463 466 467 465 464 496 497 498 499 452 453 500 501 502 503 517 514 515 516 509 510 511 513 512 527 528 529 490 493 524 525 492 491 526 523 522 521 520 519 518 494 495 470 469 468 571 572 573 0 1 2 3 4 5 6 7 8 9 10 11 16 15 14 13 12 23 22 31 32 30 29 28 27 26 25 24 21 20 19 18 17 568 569 570 471 472 473 474 567 566 565 564 563 562 561 560 549 548 545 546 547 544 543 541 542 107 109 108 173 174 175 172 170 171 169 168 162 160 161 113 112 114 111 110 115 116 117 106 105 104 103 102 100 101 551 550 559 558 557 34 33 35 36 37 38 40 41 39 42 43 44 45 46 555 556 554 553 552 99 98 96 95 97 94 93 90 92 91 47 48 49 54 55 56 58 57 82 83 53 52 50 51 84 85 86 87 89 88 77 78 79 80 81 59 60 61 63 62 64 76 75 74 73 119 118 120 121 122 123 71 72 65 66 67 68 70 69 124 125 126 127 128 129 130 131 132 133 134 135 136 137 138 139 140 141 151 150 149 152 148 147 142 143 144 146 145 158 157 159 156 155 153 154 163 167 166 164 165 201 200 199 198 202 204 203 208 207 206 205 197 196 195 194 209 210 211 212 213 214 215 216 217 223 224 222 221 220 218 219 193 192 191 190 226 225 189 227 228 229 186 185 184 183 182 181 180 179 178 177 176 187 188 540 538 537 539 478 477 479 480 476 475 482 481 483 484 485 486 487 535 536 534 488 489 530 531 532 533 230 231 233 232 234 235 236 237 240 239 238 246 247 245 244 243 242 241 248 249 250 251 252 254 253 255 256 257 300 301 302 303 304 307 508 507 506 504 505 308 309 310 311 312 451 450 441 440 439 449 448 447 446 442 443 444 445 431 382 386 387 385 383 384 409 408 407 406 405 404 403 402 401 400 399 397 398 370 369 368 365 367 366 329 328 327 326 325 324 323 322 373 372 371 396 395 394 393 392 391 388 389 390 381 380 379 378 377 376 375 374 315 314 316 313 305 306 318 317 319 320 321 297 298 299 258 259 260 261 262 263 264 265 266 267 271 268 270 269 272 273 274 275 292 291 293 294 296 295 330 331 332 288 289 290 276 277 278 279 282 281 280 287 286 285 284 283 334 335 333 336 337 338 339 340 341 342 343 344 345 346 364 363 362 347 348 349 350 351 352 353 354 355 358 359 361 360 357 356 412 411 410 418 417 413 414 415 416 419 420 421 422 423 424 425 426 427